% File represents an instance of a Composite Structure problem to be solved by a CP framework
% Created on 2025-03-25 14:05:14.212
T = 60;
n = 16;
m = 24;
edges = [(2, 1),
(5, 6),
(9, 10),
(13, 14),
(2, 3),
(6, 7),
(11, 10),
(14, 15),
(4, 3),
(8, 7),
(11, 12),
(15, 16),
(5, 1),
(5, 9),
(13, 9),
(6, 2),
(10, 6),
(14, 10),
(7, 3),
(11, 7),
(11, 15),
(4, 8),
(8, 12),
(16, 12)];
counts = [|20, 7, 7, 12,
|20, 7, 7, 13,
|20, 6, 7, 13,
|24, 7, 7, 18,
|20, 9, 9, 18,
|20, 8, 7, 13,
|20, 7, 7, 13,
|24, 7, 7, 13,
|20, 9, 9, 16,
|20, 9, 7, 13,
|20, 10, 9, 13,
|19, 5, 6, 12,
|20, 12, 12, 16,
|20, 12, 12, 15,
|19, 10, 9, 13,
|19, 10, 9, 12|];
